p edge 460 1380
e 1 138
e 1 269
e 1 438
e 2 32
e 2 175
e 2 374
e 3 15
e 3 59
e 3 326
e 4 64
e 4 76
e 4 341
e 5 74
e 5 176
e 5 198
e 6 244
e 6 365
e 6 368
e 7 212
e 7 335
e 7 391
e 8 27
e 8 106
e 8 247
e 9 196
e 9 233
e 9 443
e 10 371
e 10 454
e 10 455
e 11 127
e 11 416
e 11 452
e 12 157
e 12 417
e 12 454
e 13 34
e 13 76
e 13 349
e 14 64
e 14 177
e 14 272
e 15 142
e 15 239
e 15 296
e 16 48
e 16 166
e 16 209
e 17 55
e 17 91
e 17 273
e 18 177
e 18 211
e 18 332
e 19 119
e 19 202
e 19 287
e 20 4
e 20 275
e 20 344
e 21 156
e 21 248
e 21 376
e 22 86
e 22 314
e 22 411
e 23 232
e 23 255
e 23 274
e 24 31
e 24 237
e 24 245
e 25 370
e 25 386
e 25 428
e 26 94
e 26 137
e 26 279
e 27 82
e 27 435
e 27 458
e 28 18
e 28 183
e 28 410
e 29 116
e 29 141
e 29 359
e 30 213
e 30 379
e 30 414
e 31 217
e 31 326
e 31 421
e 32 139
e 32 271
e 32 426
e 33 53
e 33 148
e 33 308
e 34 142
e 34 349
e 34 453
e 35 25
e 35 232
e 35 266
e 36 267
e 36 295
e 36 422
e 37 280
e 37 404
e 37 439
e 38 44
e 38 179
e 38 198
e 39 52
e 39 95
e 39 117
e 40 106
e 40 151
e 40 184
e 41 137
e 41 385
e 41 417
e 42 134
e 42 376
e 42 406
e 43 98
e 43 324
e 43 359
e 44 39
e 44 151
e 44 400
e 45 100
e 45 128
e 45 364
e 46 72
e 46 89
e 46 454
e 47 186
e 47 208
e 47 456
e 48 132
e 48 143
e 48 423
e 49 34
e 49 280
e 49 405
e 50 163
e 50 165
e 50 299
e 51 101
e 51 231
e 51 457
e 52 44
e 52 251
e 52 392
e 53 243
e 53 260
e 53 277
e 54 206
e 54 374
e 54 460
e 55 9
e 55 19
e 55 363
e 56 80
e 56 145
e 56 150
e 57 65
e 57 355
e 57 403
e 58 278
e 58 302
e 58 349
e 59 101
e 59 247
e 59 295
e 60 12
e 60 281
e 60 422
e 61 136
e 61 225
e 61 233
e 62 42
e 62 131
e 62 415
e 63 218
e 63 418
e 63 432
e 64 123
e 64 406
e 64 447
e 65 50
e 65 240
e 65 294
e 66 15
e 66 94
e 66 394
e 67 25
e 67 178
e 67 237
e 68 185
e 68 214
e 68 438
e 69 351
e 69 375
e 69 399
e 70 316
e 70 328
e 70 408
e 71 137
e 71 183
e 71 369
e 72 92
e 72 418
e 72 444
e 73 42
e 73 333
e 73 450
e 74 151
e 74 167
e 74 417
e 75 142
e 75 189
e 75 428
e 76 129
e 76 277
e 76 283
e 77 27
e 77 200
e 77 215
e 78 79
e 78 256
e 78 290
e 79 16
e 79 156
e 79 433
e 80 32
e 80 84
e 80 266
e 81 177
e 81 396
e 81 408
e 82 228
e 82 304
e 82 332
e 83 334
e 83 351
e 83 441
e 84 160
e 84 272
e 84 345
e 85 15
e 85 112
e 85 331
e 86 10
e 86 219
e 86 371
e 87 283
e 87 308
e 87 311
e 88 155
e 88 257
e 88 354
e 89 41
e 89 310
e 89 352
e 90 165
e 90 322
e 90 424
e 91 122
e 91 378
e 91 410
e 92 113
e 92 281
e 92 438
e 93 191
e 93 336
e 93 368
e 94 181
e 94 242
e 94 440
e 95 19
e 95 326
e 95 346
e 96 155
e 96 378
e 96 414
e 97 42
e 97 264
e 97 381
e 98 48
e 98 375
e 98 389
e 99 88
e 99 361
e 99 445
e 100 187
e 100 231
e 100 277
e 101 77
e 101 204
e 101 234
e 102 56
e 102 97
e 102 273
e 103 299
e 103 387
e 103 395
e 104 210
e 104 405
e 104 410
e 105 203
e 105 280
e 105 371
e 106 114
e 106 304
e 106 361
e 107 226
e 107 324
e 107 370
e 108 182
e 108 185
e 108 332
e 109 89
e 109 113
e 109 423
e 110 107
e 110 431
e 110 443
e 111 32
e 111 37
e 111 288
e 112 2
e 112 192
e 112 327
e 113 120
e 113 293
e 113 412
e 114 48
e 114 245
e 114 444
e 115 180
e 115 207
e 115 366
e 116 211
e 116 346
e 116 440
e 117 159
e 117 311
e 117 443
e 118 35
e 118 41
e 118 195
e 119 129
e 119 376
e 119 426
e 120 162
e 120 408
e 120 451
e 121 33
e 121 119
e 121 236
e 122 114
e 122 391
e 122 441
e 123 2
e 123 122
e 123 162
e 124 2
e 124 117
e 124 222
e 125 232
e 125 256
e 125 276
e 126 216
e 126 298
e 126 328
e 127 59
e 127 395
e 127 404
e 128 19
e 128 47
e 128 217
e 129 13
e 129 310
e 129 396
e 130 2
e 130 188
e 130 396
e 131 188
e 131 302
e 131 348
e 132 153
e 132 284
e 132 299
e 133 5
e 133 24
e 133 178
e 134 286
e 134 306
e 134 324
e 135 380
e 135 435
e 135 446
e 136 170
e 136 230
e 136 385
e 137 71
e 137 222
e 137 365
e 138 55
e 138 355
e 138 416
e 139 66
e 139 204
e 139 284
e 140 116
e 140 147
e 140 454
e 141 39
e 141 115
e 141 435
e 142 209
e 142 320
e 142 370
e 143 75
e 143 97
e 143 305
e 144 60
e 144 154
e 144 428
e 145 11
e 145 32
e 145 61
e 146 25
e 146 333
e 146 341
e 147 179
e 147 382
e 147 408
e 148 125
e 148 288
e 148 356
e 149 102
e 149 183
e 149 284
e 150 102
e 150 128
e 150 234
e 151 27
e 151 103
e 151 269
e 152 46
e 152 162
e 152 404
e 153 31
e 153 159
e 153 391
e 154 56
e 154 129
e 154 132
e 155 14
e 155 234
e 155 303
e 156 191
e 156 209
e 156 254
e 157 2
e 157 294
e 157 417
e 158 54
e 158 250
e 158 261
e 159 98
e 159 309
e 159 425
e 160 86
e 160 171
e 160 261
e 161 41
e 161 98
e 161 287
e 162 133
e 162 266
e 162 449
e 163 93
e 163 175
e 163 276
e 164 130
e 164 143
e 164 245
e 165 127
e 165 347
e 165 376
e 166 36
e 166 210
e 166 317
e 167 45
e 167 340
e 167 439
e 168 107
e 168 150
e 168 201
e 169 141
e 169 338
e 169 373
e 170 253
e 170 367
e 170 374
e 171 160
e 171 180
e 171 335
e 172 52
e 172 122
e 172 269
e 173 43
e 173 150
e 173 293
e 174 201
e 174 222
e 174 390
e 175 23
e 175 36
e 175 287
e 176 64
e 176 148
e 176 323
e 177 128
e 177 248
e 177 384
e 178 69
e 178 184
e 178 332
e 179 173
e 179 220
e 179 428
e 180 108
e 180 133
e 180 268
e 181 96
e 181 168
e 181 446
e 182 30
e 182 256
e 182 403
e 183 278
e 183 405
e 183 441
e 184 269
e 184 416
e 184 418
e 185 175
e 185 282
e 185 318
e 186 4
e 186 134
e 186 216
e 187 125
e 187 335
e 187 409
e 188 167
e 188 323
e 188 402
e 189 142
e 189 203
e 189 300
e 190 229
e 190 322
e 190 385
e 191 83
e 191 91
e 191 100
e 192 34
e 192 156
e 192 385
e 193 108
e 193 350
e 193 388
e 194 109
e 194 159
e 194 161
e 195 208
e 195 331
e 195 423
e 196 8
e 196 48
e 196 193
e 197 131
e 197 357
e 197 435
e 198 80
e 198 219
e 198 355
e 199 141
e 199 163
e 199 380
e 200 170
e 200 243
e 200 333
e 201 9
e 201 173
e 201 440
e 202 6
e 202 29
e 202 343
e 203 79
e 203 332
e 203 429
e 204 182
e 204 398
e 204 400
e 205 82
e 205 353
e 205 397
e 206 262
e 206 290
e 206 452
e 207 93
e 207 304
e 207 318
e 208 193
e 208 279
e 208 429
e 209 98
e 209 343
e 209 437
e 210 305
e 210 309
e 210 433
e 211 21
e 211 81
e 211 400
e 212 169
e 212 202
e 212 235
e 213 63
e 213 218
e 213 455
e 214 46
e 214 270
e 214 413
e 215 122
e 215 357
e 215 365
e 216 366
e 216 379
e 216 443
e 217 56
e 217 279
e 217 426
e 218 67
e 218 199
e 218 380
e 219 99
e 219 135
e 219 233
e 220 6
e 220 27
e 220 198
e 221 67
e 221 314
e 221 399
e 222 7
e 222 150
e 222 157
e 223 77
e 223 257
e 223 429
e 224 62
e 224 349
e 224 354
e 225 389
e 225 405
e 225 454
e 226 16
e 226 30
e 226 330
e 227 38
e 227 146
e 227 202
e 228 120
e 228 217
e 228 272
e 229 170
e 229 233
e 229 361
e 230 129
e 230 318
e 230 348
e 231 98
e 231 368
e 231 423
e 232 61
e 232 166
e 232 261
e 233 95
e 233 152
e 233 218
e 234 127
e 234 358
e 234 361
e 235 264
e 235 300
e 235 450
e 236 304
e 236 380
e 236 387
e 237 40
e 237 203
e 237 209
e 238 123
e 238 131
e 238 132
e 239 153
e 239 309
e 239 434
e 240 49
e 240 156
e 240 385
e 241 25
e 241 146
e 241 377
e 242 158
e 242 291
e 242 401
e 243 62
e 243 289
e 243 437
e 244 102
e 244 227
e 244 426
e 245 58
e 245 91
e 245 458
e 246 56
e 246 93
e 246 227
e 247 130
e 247 237
e 247 392
e 248 51
e 248 153
e 248 225
e 249 179
e 249 281
e 249 411
e 250 125
e 250 157
e 250 271
e 251 184
e 251 214
e 251 224
e 252 88
e 252 121
e 252 246
e 253 282
e 253 377
e 253 392
e 254 45
e 254 218
e 254 240
e 255 68
e 255 69
e 255 373
e 256 164
e 256 334
e 256 346
e 257 236
e 257 239
e 257 397
e 258 131
e 258 176
e 258 315
e 259 65
e 259 321
e 259 410
e 260 194
e 260 228
e 260 250
e 261 40
e 261 299
e 261 454
e 262 170
e 262 286
e 262 457
e 263 58
e 263 164
e 263 438
e 264 38
e 264 66
e 264 338
e 265 190
e 265 325
e 265 388
e 266 142
e 266 148
e 266 338
e 267 65
e 267 373
e 267 399
e 268 17
e 268 229
e 268 436
e 269 119
e 269 407
e 269 442
e 270 170
e 270 182
e 270 215
e 271 31
e 271 51
e 271 384
e 272 68
e 272 100
e 272 420
e 273 375
e 273 390
e 273 418
e 274 3
e 274 22
e 274 362
e 275 129
e 275 196
e 275 456
e 276 36
e 276 216
e 276 316
e 277 41
e 277 144
e 277 255
e 278 263
e 278 312
e 278 337
e 279 125
e 279 151
e 279 402
e 280 78
e 280 321
e 280 460
e 281 141
e 281 263
e 281 383
e 282 176
e 282 322
e 282 351
e 283 205
e 283 252
e 283 254
e 284 21
e 284 151
e 284 318
e 285 38
e 285 42
e 285 419
e 286 40
e 286 149
e 286 204
e 287 220
e 287 239
e 287 289
e 288 177
e 288 366
e 288 435
e 289 285
e 289 329
e 289 336
e 290 199
e 290 262
e 290 281
e 291 86
e 291 137
e 291 242
e 292 63
e 292 66
e 292 448
e 293 156
e 293 258
e 293 456
e 294 186
e 294 374
e 294 408
e 295 5
e 295 69
e 295 234
e 296 134
e 296 158
e 296 331
e 297 46
e 297 180
e 297 342
e 298 46
e 298 138
e 298 251
e 299 12
e 299 103
e 299 329
e 300 108
e 300 144
e 300 303
e 301 279
e 301 366
e 301 427
e 302 84
e 302 125
e 302 348
e 303 189
e 303 413
e 303 454
e 304 14
e 304 220
e 304 433
e 305 167
e 305 303
e 305 330
e 306 19
e 306 138
e 306 426
e 307 234
e 307 388
e 307 413
e 308 111
e 308 186
e 308 200
e 309 80
e 309 118
e 309 245
e 310 148
e 310 172
e 310 265
e 311 94
e 311 150
e 311 402
e 312 18
e 312 196
e 312 448
e 313 196
e 313 259
e 313 274
e 314 118
e 314 135
e 314 376
e 315 64
e 315 310
e 315 357
e 316 192
e 316 307
e 316 429
e 317 176
e 317 211
e 317 415
e 318 36
e 318 225
e 318 291
e 319 204
e 319 329
e 319 459
e 320 181
e 320 205
e 320 297
e 321 126
e 321 146
e 321 172
e 322 14
e 322 85
e 322 231
e 323 213
e 323 213
e 323 230
e 324 88
e 324 309
e 324 422
e 325 129
e 325 278
e 325 353
e 326 128
e 326 279
e 326 339
e 327 146
e 327 381
e 327 446
e 328 146
e 328 391
e 328 393
e 329 263
e 329 265
e 329 341
e 330 109
e 330 404
e 330 439
e 331 159
e 331 170
e 331 319
e 332 6
e 332 44
e 332 359
e 333 18
e 333 52
e 333 400
e 334 42
e 334 295
e 334 387
e 335 252
e 335 268
e 335 354
e 336 111
e 336 132
e 336 313
e 337 40
e 337 145
e 337 442
e 338 337
e 338 342
e 338 401
e 339 30
e 339 94
e 339 429
e 340 73
e 340 158
e 340 382
e 341 49
e 341 169
e 341 453
e 342 108
e 342 401
e 342 439
e 343 194
e 343 253
e 343 392
e 344 41
e 344 206
e 344 379
e 345 19
e 345 89
e 345 187
e 346 18
e 346 281
e 346 421
e 347 320
e 347 324
e 347 451
e 348 23
e 348 238
e 348 371
e 349 168
e 349 196
e 349 395
e 350 298
e 350 335
e 350 444
e 351 101
e 351 209
e 351 222
e 352 187
e 352 393
e 352 445
e 353 1
e 353 377
e 353 458
e 354 301
e 354 333
e 354 406
e 355 88
e 355 254
e 355 427
e 356 236
e 356 288
e 356 419
e 357 15
e 357 249
e 357 435
e 358 69
e 358 300
e 358 449
e 359 110
e 359 154
e 359 400
e 360 46
e 360 126
e 360 314
e 361 128
e 361 326
e 361 352
e 362 120
e 362 275
e 362 292
e 363 322
e 363 369
e 363 430
e 364 63
e 364 162
e 364 256
e 365 131
e 365 205
e 365 297
e 366 58
e 366 262
e 366 285
e 367 35
e 367 231
e 367 379
e 368 148
e 368 433
e 368 450
e 369 223
e 369 323
e 369 376
e 370 225
e 370 336
e 370 342
e 371 132
e 371 248
e 371 273
e 372 139
e 372 354
e 372 433
e 373 41
e 373 147
e 373 194
e 374 86
e 374 194
e 374 258
e 375 239
e 375 282
e 375 430
e 376 82
e 376 343
e 376 362
e 377 236
e 377 290
e 377 312
e 378 97
e 378 201
e 378 240
e 379 110
e 379 259
e 379 362
e 380 25
e 380 95
e 380 412
e 381 33
e 381 286
e 381 446
e 382 153
e 382 160
e 382 395
e 383 204
e 383 274
e 383 296
e 384 90
e 384 214
e 384 252
e 385 111
e 385 136
e 385 192
e 386 56
e 386 59
e 386 265
e 387 237
e 387 242
e 387 394
e 388 60
e 388 145
e 388 409
e 389 274
e 389 333
e 389 410
e 390 277
e 390 350
e 390 363
e 391 52
e 391 160
e 391 372
e 392 174
e 392 288
e 392 444
e 393 131
e 393 184
e 393 449
e 394 56
e 394 182
e 394 379
e 395 23
e 395 80
e 395 218
e 396 13
e 396 306
e 396 382
e 397 38
e 397 246
e 397 297
e 398 226
e 398 316
e 398 373
e 399 104
e 399 111
e 399 202
e 400 164
e 400 367
e 400 378
e 401 312
e 401 429
e 401 436
e 402 225
e 402 229
e 402 433
e 403 54
e 403 130
e 403 337
e 404 95
e 404 285
e 404 418
e 405 70
e 405 101
e 405 327
e 406 51
e 406 190
e 406 321
e 407 304
e 407 341
e 407 392
e 408 10
e 408 268
e 408 380
e 409 65
e 409 136
e 409 160
e 410 49
e 410 221
e 410 298
e 411 277
e 411 360
e 411 443
e 412 43
e 412 314
e 412 430
e 413 279
e 413 417
e 413 458
e 414 275
e 414 358
e 414 389
e 415 62
e 415 87
e 415 290
e 416 141
e 416 193
e 416 307
e 417 162
e 417 163
e 417 411
e 418 105
e 418 170
e 418 366
e 419 136
e 419 190
e 419 344
e 420 20
e 420 128
e 420 135
e 421 120
e 421 140
e 421 290
e 422 26
e 422 185
e 422 222
e 423 95
e 423 194
e 423 347
e 424 115
e 424 273
e 424 386
e 425 78
e 425 243
e 425 390
e 426 57
e 426 206
e 426 434
e 427 75
e 427 107
e 427 225
e 428 60
e 428 175
e 428 191
e 429 79
e 429 89
e 429 164
e 430 86
e 430 104
e 430 453
e 431 82
e 431 236
e 431 282
e 432 115
e 432 134
e 432 266
e 433 164
e 433 171
e 433 255
e 434 146
e 434 300
e 434 416
e 435 83
e 435 207
e 435 360
e 436 6
e 436 321
e 436 434
e 437 158
e 437 215
e 437 334
e 438 214
e 438 317
e 438 429
e 439 23
e 439 159
e 439 330
e 440 84
e 440 92
e 440 354
e 441 22
e 441 73
e 441 460
e 442 290
e 442 354
e 442 429
e 443 28
e 443 74
e 443 152
e 444 143
e 444 200
e 444 237
e 445 372
e 445 378
e 445 387
e 446 325
e 446 362
e 446 364
e 447 35
e 447 124
e 447 459
e 448 9
e 448 163
e 448 439
e 449 67
e 449 129
e 449 337
e 450 65
e 450 134
e 450 368
e 451 107
e 451 149
e 451 302
e 452 74
e 452 155
e 452 360
e 453 246
e 453 353
e 453 396
e 454 90
e 454 114
e 454 123
e 455 61
e 455 148
e 455 404
e 456 16
e 456 173
e 456 241
e 457 134
e 457 147
e 457 197
e 458 116
e 458 353
e 458 456
e 459 258
e 459 305
e 459 418
e 460 101
e 460 261
e 460 329
